data/solutions/recovery/degenerate/intermediate/binding/degenerate_intermediate_instance37/20.sol
Elapsed time: 0.04
Upper bound: 204296.0
Planning weighted value: 8735811566.0
C[0]=204296.0
C[1]=203568.0
C[2]=202702.0
C[3]=201127.0
C[4]=192677.0
C[5]=184109.0
C[6]=178990.0
C[7]=177102.0
C[8]=131692.0
C[9]=127824.0
C[10]=126127.0
C[11]=121539.0
C[12]=119580.0
C[13]=118675.0
C[14]=0.0
C[15]=0.0
y[0]=1
y[1]=11
y[2]=3
y[3]=3
y[4]=13
y[5]=5
y[6]=12
y[7]=10
y[8]=3
y[9]=6
y[10]=1
y[11]=12
y[12]=1
y[13]=3
y[14]=5
y[15]=7
y[16]=7
y[17]=6
y[18]=1
y[19]=4
y[20]=9
y[21]=4
y[22]=11
y[23]=2
y[24]=5
y[25]=4
y[26]=3
y[27]=1
y[28]=10
y[29]=2
y[30]=7
y[31]=0
y[32]=6
y[33]=12
y[34]=13
y[35]=0
y[36]=10
y[37]=2
y[38]=8
y[39]=11
y[40]=2
y[41]=8
y[42]=12
y[43]=4
y[44]=9
y[45]=8
y[46]=8
y[47]=13
y[48]=9
y[49]=2
y[50]=6
y[51]=3
y[52]=8
y[53]=7
y[54]=10
y[55]=0
y[56]=2
y[57]=13
y[58]=5
y[59]=8
y[60]=2
y[61]=1
y[62]=4
y[63]=6
y[64]=0
